12 32 3 10
16 10 11 16 2 3 7 5 13 4 7 1 12 14 15 11 15 12 16 12 4 15 3 16 8 16 3 16 15 9 7 8 
4.02 5.33 12.73 9.87 7.98 10.3 10.56 7.4 3.09 10.92 3.14 14.96 2.6 4.69 8.2 15.18 0.84 0.74 1.04 15.45 8.19 6.47 10.48 10.31 8.31 0.31 0.39 15.65 15.85 6.31 8.42 12.31 
7.41 0.78 0 15.9 0.32 14.59 14.72 4.12 13.39 0.74 1.96 15.31 12.44 11.26 10.81 0.86 2.95 14.22 12.09 14.8 14.77 4.17 2.59 11.24 5.33 15.25 6.87 1.55 10.75 7.21 5.98 15.31 
10.72 8 10.4 0.12 11.4 6.03 4.07 9.97 9.93 12.07 14.08 15.75 9.14 14.75 14.64 10.68 5.82 4.51 6.65 4.81 1.82 15.79 1.8 12.97 15.47 12.9 2.49 3.56 14.64 2.32 15.64 11.09 
8 8 8 8 8 8 8 8 8 8 8 8 8 8 8 8 8 8 8 8 8 8 8 8 8 8 8 8 8 8 8 8 
8.5 7.63 4.01 9.65 13.81 11.87 11.09 9.28 9.03 7.48 15.03 9.2 11.48 15.32 4.48 11.99 10.47 9.55 9.06 2.76 8.54 4.8 11.42 3.56 3.62 9.16 5.89 9.61 13.51 11.22 2.56 12.76 
12.1 10 8.46 10.97 12.98 3.18 11.38 5.16 15.74 1.61 7.71 12.22 8.44 12.23 10.8 1.93 4.7 16 6.08 12.39 0.25 1.05 11.82 10.48 8.11 7.12 12.63 2.35 15.68 15.84 14.51 13.18 
3.52 3.26 11.29 3.18 14.08 7.75 3.71 3.82 4.82 3.94 3.68 10.25 9.74 15.98 1.78 5.27 0.12 11.56 10.27 7.32 7.53 6.97 5.49 1.14 15.9 4.84 11.12 1.14 13.83 1.88 1.57 0.39 
4.69 11.9 2 1.28 9.55 2.74 12.77 6.88 12.48 14.42 4.18 2.52 7.66 12.5 10.43 8.25 6.75 8.12 2.54 15.35 10.99 9.9 9.87 8.22 3.68 5.59 10.71 6.71 9.47 1.8 11.25 8.89 
4.61 13.46 6.1 4.2 3.94 14.4 6.84 8.12 1.61 10.63 11.78 9.06 12.63 15.91 6.92 13.35 4.8 12.07 4.04 8.23 6.42 13.08 5.86 12.1 13.11 9.69 2.81 11.44 2.14 0.26 8.9 11.82 
1.59 0.46 14.32 4.21 12.75 6.07 0.93 10.52 4.22 6.8 9.05 0.11 11.22 7.52 15.37 11.62 15.31 14.2 2.65 15.69 0.97 2.52 6.48 7 12.74 8.97 1.17 11.88 14 7.16 0.55 11.31 
1.37 4.44 8.74 9.44 11.23 12.26 9.68 5.44 6.77 12.12 10.78 4.18 3.79 2.56 12.91 7.58 2.95 13.04 4.09 3.59 15.95 12.6 4.85 4.34 12.25 8.87 10.18 5.17 2.77 7.56 1.41 11.35 
15.91 15.58 11.29 14.51 0.36 6.85 6.81 13.85 1.77 15.34 4 11.53 6.98 1.35 2.17 4.98 4.96 2.25 6.77 10.06 15.99 1.96 2 2.27 13.16 12.67 13.23 4.78 5.49 3.37 12.58 3.38 
1 1 1 1 1 1 1 1 1 1 1 1 1 1 1 1 1 1 1 1 1 1 1 1 1 1 1 1 1 1 1 1 
1 1 1 1 1 1 1 1 1 1 1 1 1 1 1 1 1 1 1 1 1 1 1 1 1 1 1 1 1 1 1 1 
1 1 1 1 1 1 1 1 1 1 1 1 1 1 1 1 1 1 1 1 1 1 1 1 1 1 1 1 1 1 1 1 
1 1 1 1 1 1 1 1 1 1 1 1 1 1 1 1 1 1 1 1 1 1 1 1 1 1 1 1 1 1 1 1 
1 1 1 1 1 1 1 1 1 1 1 1 1 1 1 1 1 1 1 1 1 1 1 1 1 1 1 1 1 1 1 1 
1 1 1 1 1 1 1 1 1 1 1 1 1 1 1 1 1 1 1 1 1 1 1 1 1 1 1 1 1 1 1 1 
1 1 1 1 1 1 1 1 1 1 1 1 1 1 1 1 1 1 1 1 1 1 1 1 1 1 1 1 1 1 1 1 
1 1 1 1 1 1 1 1 1 1 1 1 1 1 1 1 1 1 1 1 1 1 1 1 1 1 1 1 1 1 1 1 
1 1 1 1 1 1 1 1 1 1 1 1 1 1 1 1 1 1 1 1 1 1 1 1 1 1 1 1 1 1 1 1 
1 1 1 1 1 1 1 1 1 1 1 1 1 1 1 1 1 1 1 1 1 1 1 1 1 1 1 1 1 1 1 1 
1 1 1 1 1 1 1 1 1 1 1 1 1 1 1 1 1 1 1 1 1 1 1 1 1 1 1 1 1 1 1 1 
1 1 1 1 1 1 1 1 1 1 1 1 1 1 1 1 1 1 1 1 1 1 1 1 1 1 1 1 1 1 1 1 
0.01 0.01 0.01 0.01 0.01 0.01 0.01 0.01 0.01 0.01 0.01 0.01 0.01 0.01 0.01 0.01 0.01 0.01 0.01 0.01 0.01 0.01 0.01 0.01 0.01 0.01 0.01 0.01 0.01 0.01 0.01 0.01 
0.02 0.02 0.02 0.02 0.02 0.02 0.02 0.02 0.02 0.02 0.02 0.02 0.02 0.02 0.02 0.02 0.02 0.02 0.02 0.02 0.02 0.02 0.02 0.02 0.02 0.02 0.02 0.02 0.02 0.02 0.02 0.02 
0.03 0.03 0.03 0.03 0.03 0.03 0.03 0.03 0.03 0.03 0.03 0.03 0.03 0.03 0.03 0.03 0.03 0.03 0.03 0.03 0.03 0.03 0.03 0.03 0.03 0.03 0.03 0.03 0.03 0.03 0.03 0.03 
0.04 0.04 0.04 0.04 0.04 0.04 0.04 0.04 0.04 0.04 0.04 0.04 0.04 0.04 0.04 0.04 0.04 0.04 0.04 0.04 0.04 0.04 0.04 0.04 0.04 0.04 0.04 0.04 0.04 0.04 0.04 0.04 
0.125 0.125 0.125 0.125 0.125 0.125 0.125 0.125 0.125 0.125 0.125 0.125 0.125 0.125 0.125 0.125 0.125 0.125 0.125 0.125 0.125 0.125 0.125 0.125 0.125 0.125 0.125 0.125 0.125 0.125 0.125 0.125 
0.25 0.25 0.25 0.25 0.25 0.25 0.25 0.25 0.25 0.25 0.25 0.25 0.25 0.25 0.25 0.25 0.25 0.25 0.25 0.25 0.25 0.25 0.25 0.25 0.25 0.25 0.25 0.25 0.25 0.25 0.25 0.25 
0.375 0.375 0.375 0.375 0.375 0.375 0.375 0.375 0.375 0.375 0.375 0.375 0.375 0.375 0.375 0.375 0.375 0.375 0.375 0.375 0.375 0.375 0.375 0.375 0.375 0.375 0.375 0.375 0.375 0.375 0.375 0.375 
0.5 0.5 0.5 0.5 0.5 0.5 0.5 0.5 0.5 0.5 0.5 0.5 0.5 0.5 0.5 0.5 0.5 0.5 0.5 0.5 0.5 0.5 0.5 0.5 0.5 0.5 0.5 0.5 0.5 0.5 0.5 0.5 
0.625 0.625 0.625 0.625 0.625 0.625 0.625 0.625 0.625 0.625 0.625 0.625 0.625 0.625 0.625 0.625 0.625 0.625 0.625 0.625 0.625 0.625 0.625 0.625 0.625 0.625 0.625 0.625 0.625 0.625 0.625 0.625 
0.75 0.75 0.75 0.75 0.75 0.75 0.75 0.75 0.75 0.75 0.75 0.75 0.75 0.75 0.75 0.75 0.75 0.75 0.75 0.75 0.75 0.75 0.75 0.75 0.75 0.75 0.75 0.75 0.75 0.75 0.75 0.75 
0.875 0.875 0.875 0.875 0.875 0.875 0.875 0.875 0.875 0.875 0.875 0.875 0.875 0.875 0.875 0.875 0.875 0.875 0.875 0.875 0.875 0.875 0.875 0.875 0.875 0.875 0.875 0.875 0.875 0.875 0.875 0.875 
1 1 1 1 1 1 1 1 1 1 1 1 1 1 1 1 1 1 1 1 1 1 1 1 1 1 1 1 1 1 1 1 
